(set-option :print-success false)
(set-logic QF_UF)
(declare-sort x89 0)
(declare-sort x21 0)
(declare-fun x114 (x21 x21) x21)
(declare-fun x50 () x21)
(declare-fun x80 () x21)
(declare-fun x59 (x21 x21) x21)
(declare-fun x142 () x21)
(declare-fun x47 () x21)
(declare-fun x28 () x21)
(assert (let ((x103 (x59 x80 x47)) (x74 (x59 x47 x80)) (x17 (x59 x47 x50)) (x31 (x59 x47 x47)) (x147 (x59 x28 x50)) (x26 (x59 x28 x47)) (x84 (x59 x142 x142)) (x14 (x59 x142 x28)) (x156 (x59 x28 x80)) (x34 (x59 x80 x142)) (x120 (x59 x28 x28)) (x42 (x59 x80 x50)) (x129 (x59 x28 x142)) (x68 (x59 x50 x28)) (x122 (x59 x50 x50)) (x139 (x59 x50 x47)) (x4 (x59 x50 x142)) (x10 (x59 x47 x142)) (x71 (x59 x142 x47)) (x72 (x59 x80 x28)) (x53 (x59 x47 x28)) (x154 (x59 x50 x80)) (x127 (x59 x80 x80)) (x91 (x59 x142 x50)) (x116 (x59 x142 x80))) (let ((x13 (= x50 x127)) (x96 (= x47 x91)) (x52 (= x50 x84)) (x141 (= x47 x156)) (x6 (= x156 x28)) (x56 (= x53 x47)) (x152 (= x103 x142)) (x125 (= x28 x34)) (x27 (= x14 x142)) (x51 (= x154 x28)) (x143 (= x103 x50)) (x29 (= x80 x31)) (x146 (= x28 x139)) (x57 (= x71 x142)) (x32 (= x68 x80)) (x140 (= x50 x34)) (x19 (= x50 x91)) (x133 (= x50 x10)) (x88 (= x47 x122)) (x63 (= x142 x139)) (x148 (= x80 x122)) (x98 (= x80 x84)) (x128 (= x47 x42)) (x62 (= x50 x71)) (x82 (= x34 x80)) (x38 (= x91 x80)) (x5 (= x80 x17)) (x20 (= x80 x103)) (x16 (= x42 x142)) (x66 (= x127 x80)) (x159 (= x147 x28)) (x99 (= x71 x28)) (x24 (= x142 x127)) (x1 (= x42 x50)) (x35 (= x154 x50)) (x106 (= x26 x50)) (x36 (= x116 x47)) (x101 (= x28 x4)) (x158 (= x129 x28)) (x124 (= x80 x10)) (x75 (= x91 x28)) (x54 (= x139 x80)) (x102 (= x28 x120)) (x87 (= x74 x80)) (x81 (= x139 x47)) (x44 (= x26 x80)) (x3 (= x28 x31)) (x83 (= x28 x14)) (x76 (= x50 x116)) (x41 (= x74 x47)) (x132 (= x34 x47)) (x135 (= x80 x71)) (x151 (= x142 x129)) (x155 (= x84 x47)) (x77 (= x142 x4)) (x90 (= x122 x142)) (x39 (= x50 x122)) (x48 (= x72 x28)) (x60 (= x50 x147)) (x131 (= x91 x142)) (x108 (= x127 x28)) (x73 (= x10 x28)) (x144 (= x34 x142)) (x18 (= x53 x80)) (x150 (= x116 x28)) (x55 (= x156 x142)) (x85 (= x28 x122)) (x130 (= x154 x142)) (x9 (= x120 x142)) (x110 (= x103 x47)) (x23 (= x129 x47)) (x97 (= x50 x31)) (x95 (= x50 x120)) (x119 (= x147 x142)) (x153 (= x28 x53)) (x134 (= x68 x50)) (x107 (= x142 x74)) (x49 (= x17 x28)) (x145 (= x80 x156)) (x64 (= x28 x42)) (x58 (= x154 x80)) (x92 (= x50 x4)) (x137 (= x142 x72)) (x45 (= x142 x68)) (x15 (= x74 x50)) (x69 (= x4 x47)) (x115 (= x47 x120)) (x65 (= x28 x74)) (x157 (= x47 x68)) (x138 (= x17 x142)) (x25 (= x47 x71)) (x2 (= x50 x53)) (x113 (= x80 x116)) (x78 (= x142 x26)) (x117 (= x14 x80)) (x40 (= x84 x28)) (x121 (= x26 x47)) (x86 (= x129 x80)) (x8 (= x14 x50)) (x43 (= x80 x120)) (x109 (= x103 x28)) (x104 (= x129 x50)) (x61 (= x47 x72)) (x22 (= x28 x26)) (x149 (= x84 x142)) (x123 (= x47 x154)) (x105 (= x80 x4)) (x136 (= x147 x80)) (x93 (= x17 x50)) (x94 (= x47 x31)) (x70 (= x47 x17)) (x67 (= x31 x142)) (x46 (= x50 x72)) (x79 (= x142 x53)) (x118 (= x142 x10)) (x37 (= x50 x139)) (x33 (= x80 x72)) (x112 (= x116 x142)) (x111 (= x127 x47)) (x7 (= x47 x10)) (x12 (= x14 x47)) (x30 (= x28 x68)) (x126 (= x147 x47)) (x100 (= x42 x80)) (x11 (= x156 x50))) (and (and (and (and (and (and (and (or (or (or x8 (or x46 x95)) x134) x2) (or (or (or x104 (or x11 x95)) x60) x106)) (and (and (or (or x119 (or (or x55 x9) x151)) x78) (or (or x45 (or (or x9 x137) x27)) x79)) (and (and (or x44 (or x136 (or (or x43 x145) x86))) (or (or (or (or x43 x33) x117) x32) x18)) (and (or (or x30 (or x83 (or x48 x102))) x153) (or (or x159 (or (or x6 x102) x158)) x22))))) (and (or (or (or x23 (or x115 x141)) x126) x121) (or (or x157 (or (or x61 x115) x12)) x56))) (and (and (or (or x128 (or x132 (or x111 x61))) x110) (or (or (or (or x141 x111) x36) x123) x41)) (and (and (and (or (or x130 (or (or x24 x55) x112)) x107) (or (or (or (or x24 x137) x144) x16) x152)) (and (and (or (or (or x150 (or x6 x108)) x51) x65) (or (or (or x125 (or x48 x108)) x64) x109)) (and (or x20 (or x100 (or x82 (or x66 x33)))) (or x87 (or (or x113 (or x66 x145)) x58))))) (and (or x143 (or x1 (or (or x46 x13) x140))) (or x15 (or (or (or x13 x11) x76) x35)))))) (and (and (or (or (or x155 (or x132 x23)) x69) x7) (or (or x96 (or (or x36 x12) x155)) x25)) (and (and (and (and (or (or x105 (or (or x86 x82) x98)) x124) (or (or (or x98 (or x117 x113)) x38) x135)) (and (or x73 (or (or (or x158 x125) x40) x101)) (or (or (or (or x150 x83) x40) x75) x99))) (and (or x57 (or (or (or x112 x27) x149) x131)) (or (or x77 (or (or x151 x144) x149)) x118))) (and (or (or (or (or x104 x140) x52) x92) x133) (or (or (or x52 (or x8 x76)) x19) x62))))) (and (and (or (or (or x69 (or x123 x157)) x88) x81) (or x70 (or x88 (or (or x126 x128) x96)))) (and (and (and (or x63 (or x90 (or x77 (or x130 x45)))) (or (or (or x131 (or x119 x16)) x90) x138)) (and (and (or x54 (or x148 (or (or x32 x58) x105))) (or (or x148 (or x38 (or x100 x136))) x5)) (and (or x146 (or x85 (or x101 (or x30 x51)))) (or x49 (or (or x75 (or x159 x64)) x85))))) (and (or (or (or x92 (or x35 x134)) x39) x37) (or x93 (or x39 (or x19 (or x60 x1)))))))) (and (and (or x94 (or (or (or x110 x121) x25) x81)) (or x94 (or x70 (or (or x56 x41) x7)))) (and (and (or (or (or (or x2 x15) x133) x93) x97) (or x97 (or x37 (or (or x106 x143) x62)))) (and (and (or x67 (or (or (or x152 x78) x57) x63)) (or (or (or (or x107 x79) x118) x138) x67)) (and (and (or x3 (or (or (or x22 x109) x99) x146)) (or x3 (or (or x73 (or x65 x153)) x49))) (and (or (or (or (or x20 x44) x135) x54) x29) (or (or x5 (or x124 (or x18 x87))) x29))))))))))
(assert (let ((x129 (x59 x50 (x59 x50 x50))) (x156 (x59 x142 (x59 x142 x142))) (x147 (x59 x47 (x59 x47 x47))) (x102 (x59 x28 (x59 x28 x28))) (x120 (x59 x80 (x59 x80 x80)))) (or (and (and (not (= x129 x47)) (and (and (not (= x102 x47)) (not (= x47 x120))) (not (= x156 x47)))) (not (= x47 x147))) (or (and (and (and (and (not (= x120 x50)) (not (= x50 x102))) (not (= x50 x156))) (not (= x129 x50))) (not (= x50 x147))) (or (or (and (and (not (= x28 x129)) (and (and (not (= x102 x28)) (not (= x28 x120))) (not (= x28 x156)))) (not (= x147 x28))) (and (and (not (= x80 x129)) (and (not (= x156 x80)) (and (not (= x120 x80)) (not (= x80 x102))))) (not (= x80 x147)))) (and (not (= x147 x142)) (and (not (= x142 x129)) (and (not (= x156 x142)) (and (not (= x142 x102)) (not (= x142 x120)))))))))))
(assert (let ((x150 (x59 x80 x80)) (x113 (x59 x50 x80)) (x112 (x59 x50 x142)) (x137 (x59 x28 x80)) (x154 (x59 x28 x28)) (x132 (x59 x47 x50)) (x46 (x59 x142 x28)) (x117 (x59 x80 x50)) (x27 (x59 x142 x50)) (x141 (x59 x47 x28)) (x151 (x59 x142 x47)) (x84 (x59 x80 x47)) (x144 (x59 x47 x142)) (x4 (x59 x142 x142)) (x32 (x59 x47 x47)) (x23 (x59 x50 x47)) (x24 (x59 x28 x142)) (x125 (x59 x80 x142)) (x12 (x59 x50 x50)) (x40 (x59 x142 x80)) (x11 (x59 x28 x50)) (x55 (x59 x80 x28)) (x91 (x59 x47 x80)) (x61 (x59 x28 x47)) (x13 (x59 x50 x28))) (let ((x147 (not (= x28 x46))) (x95 (not (= x28 x117))) (x56 (not (= x141 x47))) (x98 (not (= x80 x125))) (x111 (not (= x55 x80))) (x19 (not (= x142 x144))) (x120 (not (= x55 x28))) (x145 (not (= x28 x132))) (x115 (not (= x112 x28))) (x99 (not (= x11 x50))) (x158 (not (= x150 x80))) (x69 (not (= x142 x32))) (x135 (not (= x144 x50))) (x30 (not (= x80 x61))) (x42 (not (= x144 x28))) (x52 (not (= x27 x80))) (x149 (not (= x80 x13))) (x103 (not (= x151 x28))) (x17 (not (= x125 x142))) (x74 (not (= x80 x154))) (x92 (not (= x142 x61))) (x131 (not (= x142 x112))) (x65 (not (= x24 x50))) (x88 (not (= x150 x50))) (x25 (not (= x132 x47))) (x9 (not (= x113 x28))) (x36 (not (= x80 x12))) (x100 (not (= x46 x142))) (x45 (not (= x4 x142))) (x18 (not (= x112 x50))) (x118 (not (= x154 x47))) (x72 (not (= x125 x28))) (x102 (not (= x154 x28))) (x108 (not (= x28 x141))) (x119 (not (= x113 x142))) (x1 (not (= x142 x84))) (x39 (not (= x142 x151))) (x140 (not (= x80 x112))) (x105 (not (= x154 x142))) (x152 (not (= x150 x47))) (x122 (not (= x55 x142))) (x126 (not (= x154 x50))) (x53 (not (= x28 x11))) (x77 (not (= x11 x142))) (x44 (not (= x50 x91))) (x133 (not (= x13 x47))) (x14 (not (= x4 x28))) (x20 (not (= x50 x84))) (x51 (not (= x91 x80))) (x58 (not (= x32 x80))) (x139 (not (= x142 x137))) (x79 (not (= x23 x50))) (x41 (not (= x61 x47))) (x49 (not (= x125 x50))) (x116 (not (= x28 x32))) (x123 (not (= x23 x142))) (x63 (not (= x24 x47))) (x134 (not (= x142 x12))) (x76 (not (= x113 x80))) (x148 (not (= x142 x40))) (x155 (not (= x80 x141))) (x104 (not (= x80 x117))) (x73 (not (= x50 x40))) (x138 (not (= x47 x55))) (x35 (not (= x142 x141))) (x82 (not (= x40 x80))) (x127 (not (= x28 x91))) (x93 (not (= x11 x47))) (x6 (not (= x28 x12))) (x136 (not (= x142 x150))) (x70 (not (= x47 x84))) (x22 (not (= x50 x4))) (x2 (not (= x47 x125))) (x67 (not (= x40 x47))) (x106 (not (= x113 x47))) (x94 (not (= x47 x32))) (x78 (not (= x47 x137))) (x107 (not (= x50 x32))) (x26 (not (= x24 x28))) (x29 (not (= x50 x132))) (x109 (not (= x13 x50))) (x87 (not (= x50 x27))) (x7 (not (= x91 x47))) (x157 (not (= x132 x142))) (x57 (not (= x47 x46))) (x5 (not (= x141 x50))) (x64 (not (= x80 x151))) (x3 (not (= x117 x50))) (x110 (not (= x151 x47))) (x10 (not (= x80 x4))) (x96 (not (= x50 x137))) (x101 (not (= x80 x84))) (x33 (not (= x28 x61))) (x38 (not (= x24 x142))) (x60 (not (= x142 x91))) (x86 (not (= x24 x80))) (x8 (not (= x11 x80))) (x124 (not (= x12 x50))) (x121 (not (= x47 x144))) (x48 (not (= x27 x28))) (x75 (not (= x132 x80))) (x90 (not (= x142 x27))) (x71 (not (= x46 x80))) (x130 (not (= x142 x13))) (x62 (not (= x112 x47))) (x31 (not (= x61 x50))) (x68 (not (= x28 x13))) (x66 (not (= x28 x23))) (x146 (not (= x50 x113))) (x15 (not (= x47 x4))) (x159 (not (= x80 x144))) (x143 (not (= x117 x47))) (x34 (not (= x28 x84))) (x83 (not (= x80 x137))) (x16 (not (= x117 x142))) (x156 (not (= x28 x137))) (x54 (not (= x151 x50))) (x85 (not (= x80 x23))) (x43 (not (= x28 x40))) (x129 (not (= x28 x150))) (x97 (not (= x47 x12))) (x81 (not (= x23 x47))) (x153 (not (= x50 x46))) (x37 (not (= x27 x47))) (x128 (not (= x50 x55)))) (or (and (and (and (or x25 x81) (and (or x121 x110) (and (or x56 x41) (or x70 x7)))) (or x94 x94)) (and (and (and (and (or x37 x62) (and (and (or x57 x63) (or x67 x2)) (or x15 x15))) (or x121 x110)) (and (and (or x56 x41) (and (and (and (or x118 x118) (or x78 x138)) (or x57 x63)) (or x133 x93))) (and (or x70 x7) (and (or x143 x106) (and (and (or x138 x78) (or x152 x152)) (or x2 x67)))))) (and (or x25 x81) (and (or x97 x97) (and (and (or x143 x106) (or x93 x133)) (or x62 x37)))))) (or (or (or (and (and (and (or x66 x145) (and (and (or x115 x48) (and (or x9 x95) (or x53 x68))) (or x6 x6))) (and (and (and (or x33 x108) (and (and (and (or x102 x102) (or x120 x156)) (or x147 x26)) (or x68 x53))) (and (and (and (or x43 x72) (and (or x129 x129) (or x156 x120))) (or x95 x9)) (or x127 x34))) (and (and (or x115 x48) (and (and (or x43 x72) (or x147 x26)) (or x14 x14))) (or x103 x42)))) (and (or x116 x116) (and (and (or x103 x42) (and (or x108 x33) (or x127 x34))) (or x66 x145)))) (and (and (and (and (and (and (or x149 x8) (and (and (or x74 x74) (or x111 x83)) (or x86 x71))) (or x30 x155)) (and (and (and (and (or x158 x158) (or x83 x111)) (or x82 x98)) (or x104 x76)) (or x51 x101))) (and (or x159 x64) (and (and (or x10 x10) (and (or x71 x86) (or x82 x98))) (or x140 x52)))) (and (or x85 x75) (and (and (or x140 x52) (and (or x104 x76) (or x149 x8))) (or x36 x36)))) (and (or x58 x58) (and (and (or x159 x64) (and (or x51 x101) (or x155 x30))) (or x85 x75))))) (and (and (and (or x157 x123) (and (or x39 x19) (and (or x92 x35) (or x60 x1)))) (or x69 x69)) (and (and (and (or x39 x19) (and (and (and (or x17 x148) (or x100 x38)) (or x45 x45)) (or x90 x131))) (and (and (or x35 x92) (and (and (or x38 x100) (and (or x122 x139) (or x105 x105))) (or x77 x130))) (and (or x1 x60) (and (or x16 x119) (and (and (or x136 x136) (or x122 x139)) (or x17 x148)))))) (and (or x157 x123) (and (and (and (or x77 x130) (or x16 x119)) (or x131 x90)) (or x134 x134)))))) (and (and (and (or x29 x79) (and (or x124 x124) (and (or x87 x18) (and (or x3 x146) (or x99 x109))))) (and (and (and (and (or x146 x3) (and (and (or x128 x96) (or x88 x88)) (or x49 x73))) (or x20 x44)) (and (and (or x109 x99) (and (and (or x96 x128) (or x126 x126)) (or x153 x65))) (or x5 x31))) (and (or x135 x54) (and (or x18 x87) (and (or x22 x22) (and (or x65 x153) (or x73 x49))))))) (and (and (and (or x54 x135) (and (or x20 x44) (or x31 x5))) (or x79 x29)) (or x107 x107))))))))
(assert (let ((x48 (x59 x142 x47)) (x129 (x59 x28 x50)) (x53 (x59 x142 x28)) (x95 (x59 x142 x142)) (x43 (x59 x80 x80)) (x33 (x59 x50 x142)) (x108 (x59 x50 x80)) (x26 (x59 x80 x28)) (x115 (x59 x142 x50)) (x120 (x59 x28 x80)) (x9 (x59 x142 x80)) (x116 (x59 x47 x47)) (x66 (x59 x47 x50)) (x147 (x59 x28 x47)) (x14 (x59 x80 x50)) (x127 (x59 x50 x50)) (x72 (x59 x80 x142)) (x34 (x59 x50 x47)) (x42 (x59 x47 x28)) (x156 (x59 x28 x142)) (x68 (x59 x80 x47)) (x6 (x59 x50 x28)) (x145 (x59 x47 x142)) (x102 (x59 x28 x28)) (x103 (x59 x47 x80))) (or (or (or (and (not (= x47 (x59 x48 x48))) (and (and (and (not (= (x59 x53 x53) x28)) (not (= x80 (x59 x9 x9)))) (not (= x142 (x59 x95 x95)))) (not (= x50 (x59 x115 x115))))) (or (and (and (not (= (x59 x14 x14) x50)) (and (and (not (= x28 (x59 x26 x26))) (not (= (x59 x43 x43) x80))) (not (= (x59 x72 x72) x142)))) (not (= (x59 x68 x68) x47))) (and (and (and (and (not (= (x59 x120 x120) x80)) (not (= (x59 x102 x102) x28))) (not (= x142 (x59 x156 x156)))) (not (= (x59 x129 x129) x50))) (not (= (x59 x147 x147) x47))))) (and (not (= x47 (x59 x34 x34))) (and (and (and (not (= x80 (x59 x108 x108))) (not (= x28 (x59 x6 x6)))) (not (= (x59 x33 x33) x142))) (not (= x50 (x59 x127 x127)))))) (and (and (not (= (x59 x66 x66) x50)) (and (not (= x142 (x59 x145 x145))) (and (not (= x28 (x59 x42 x42))) (not (= x80 (x59 x103 x103)))))) (not (= (x59 x116 x116) x47))))))
(assert (let ((x9 (x59 x142 x80)) (x33 (x59 x50 x142)) (x72 (x59 x80 x142)) (x108 (x59 x50 x80)) (x34 (x59 x50 x47)) (x147 (x59 x28 x47)) (x68 (x59 x80 x47)) (x95 (x59 x142 x142)) (x42 (x59 x47 x28)) (x53 (x59 x142 x28)) (x129 (x59 x28 x50)) (x115 (x59 x142 x50)) (x127 (x59 x50 x50)) (x103 (x59 x47 x80)) (x6 (x59 x50 x28)) (x66 (x59 x47 x50)) (x48 (x59 x142 x47)) (x102 (x59 x28 x28)) (x26 (x59 x80 x28)) (x14 (x59 x80 x50)) (x145 (x59 x47 x142)) (x156 (x59 x28 x142)) (x43 (x59 x80 x80)) (x120 (x59 x28 x80)) (x116 (x59 x47 x47))) (and (and (and (and (and (and (and (and (or (or (or (= x102 x142) (or (= x102 x80) (= x102 x28))) (= x50 x102)) (= x102 x47)) (or (= x120 x47) (or (= x50 x120) (or (= x120 x142) (or (= x120 x28) (= x80 x120)))))) (or (or (or (= x156 x142) (or (= x156 x80) (= x28 x156))) (= x50 x156)) (= x47 x156))) (or (or (or (= x142 x129) (or (= x129 x28) (= x129 x80))) (= x129 x50)) (= x129 x47))) (or (= x147 x47) (or (or (= x142 x147) (or (= x80 x147) (= x28 x147))) (= x147 x50)))) (and (or (= x68 x47) (or (= x50 x68) (or (or (= x68 x80) (= x68 x28)) (= x142 x68)))) (and (and (or (or (= x50 x72) (or (= x142 x72) (or (= x72 x80) (= x28 x72)))) (= x47 x72)) (and (or (= x47 x43) (or (= x50 x43) (or (= x142 x43) (or (= x43 x28) (= x43 x80))))) (or (= x26 x47) (or (= x26 x50) (or (= x26 x142) (or (= x26 x28) (= x80 x26))))))) (or (or (= x50 x14) (or (= x142 x14) (or (= x80 x14) (= x28 x14)))) (= x14 x47))))) (and (or (or (or (= x142 x48) (or (= x28 x48) (= x48 x80))) (= x48 x50)) (= x47 x48)) (and (or (= x115 x47) (or (= x50 x115) (or (= x115 x142) (or (= x80 x115) (= x28 x115))))) (and (or (or (= x50 x95) (or (or (= x95 x80) (= x28 x95)) (= x95 x142))) (= x95 x47)) (and (or (or (or (or (= x9 x80) (= x9 x28)) (= x142 x9)) (= x9 x50)) (= x47 x9)) (or (= x47 x53) (or (or (= x53 x142) (or (= x80 x53) (= x53 x28))) (= x50 x53)))))))) (and (and (and (and (or (or (= x50 x108) (or (= x142 x108) (or (= x108 x28) (= x80 x108)))) (= x108 x47)) (or (or (= x50 x6) (or (= x6 x142) (or (= x6 x28) (= x6 x80)))) (= x47 x6))) (or (= x33 x47) (or (= x33 x50) (or (or (= x33 x80) (= x28 x33)) (= x142 x33))))) (or (= x127 x47) (or (or (or (= x127 x80) (= x127 x28)) (= x142 x127)) (= x127 x50)))) (or (= x34 x47) (or (or (= x142 x34) (or (= x34 x28) (= x80 x34))) (= x50 x34))))) (and (and (and (or (or (or (= x142 x145) (or (= x80 x145) (= x28 x145))) (= x50 x145)) (= x47 x145)) (and (or (or (= x50 x42) (or (= x42 x142) (or (= x42 x28) (= x42 x80)))) (= x47 x42)) (or (or (= x50 x103) (or (or (= x103 x28) (= x80 x103)) (= x142 x103))) (= x47 x103)))) (or (= x66 x47) (or (= x50 x66) (or (= x66 x142) (or (= x80 x66) (= x28 x66)))))) (or (= x116 x47) (or (or (or (= x80 x116) (= x116 x28)) (= x116 x142)) (= x50 x116)))))))
(assert (let ((x68 (= x50 (x59 x50 x28))) (x147 (= (x59 x142 x28) x142)) (x66 (= (x59 x50 x47) x50)) (x127 (= (x59 x47 x80) x47)) (x95 (= x80 (x59 x80 x50))) (x145 (= x47 (x59 x47 x50))) (x6 (= (x59 x50 x50) x50)) (x9 (= (x59 x50 x80) x50)) (x53 (= x28 (x59 x28 x50))) (x26 (= (x59 x28 x142) x28)) (x34 (= x80 (x59 x80 x47))) (x156 (= x28 (x59 x28 x80))) (x129 (= x80 (x59 x80 x80))) (x103 (= (x59 x142 x47) x142)) (x48 (= x142 (x59 x142 x50))) (x14 (= x142 (x59 x142 x142))) (x43 (= (x59 x142 x80) x142)) (x72 (= (x59 x80 x142) x80)) (x108 (= (x59 x47 x28) x47)) (x116 (= (x59 x47 x47) x47)) (x115 (= x50 (x59 x50 x142))) (x33 (= (x59 x28 x47) x28)) (x120 (= x80 (x59 x80 x28))) (x42 (= x47 (x59 x47 x142))) (x102 (= x28 (x59 x28 x28)))) (or (or (or (or (or (and x127 x34) (and x108 x33)) (and x42 x103)) (and x66 x145)) (and x116 x116)) (or (or (or (and x6 x6) (or (and x115 x48) (or (and x53 x68) (and x9 x95)))) (and x66 x145)) (or (or (and x103 x42) (or (or (and x14 x14) (or (and x72 x43) (and x26 x147))) (and x48 x115))) (or (or (or (or (and x147 x26) (or (and x102 x102) (and x120 x156))) (and x53 x68)) (and x33 x108)) (or (or (or (or (and x129 x129) (and x120 x156)) (and x72 x43)) (and x9 x95)) (and x34 x127))))))))
(assert (let ((x48 (x59 x47 x142)) (x102 (x59 x28 x28)) (x66 (x59 x50 x47)) (x68 (x59 x47 x80)) (x9 (x59 x80 x142)) (x103 (x59 x80 x47)) (x6 (x59 x28 x50)) (x115 (x59 x50 x142)) (x14 (x59 x50 x80)) (x72 (x59 x142 x80)) (x95 (x59 x142 x142)) (x26 (x59 x28 x80)) (x127 (x59 x50 x50)) (x147 (x59 x47 x28)) (x129 (x59 x50 x28)) (x42 (x59 x28 x47)) (x34 (x59 x47 x50)) (x156 (x59 x142 x28)) (x108 (x59 x80 x50)) (x33 (x59 x142 x50)) (x120 (x59 x80 x28)) (x43 (x59 x80 x80)) (x145 (x59 x142 x47)) (x53 (x59 x28 x142)) (x116 (x59 x47 x47))) (and (and (and (and (and (not (= x33 x34)) (and (not (= x127 x33)) (and (and (and (not (= x33 x108)) (and (and (and (not (= x33 x6)) (not (= x6 x108))) (not (= x127 x6))) (not (= x34 x6)))) (not (= x127 x108))) (not (= x108 x34))))) (not (= x127 x34))) (and (and (not (= x48 x115)) (and (and (not (= x95 x115)) (and (and (not (= x115 x9)) (and (and (not (= x48 x53)) (and (not (= x53 x115)) (and (not (= x53 x9)) (not (= x53 x95))))) (not (= x95 x9)))) (not (= x9 x48)))) (not (= x95 x48)))) (and (and (and (not (= x68 x72)) (and (not (= x72 x14)) (and (and (and (not (= x72 x43)) (and (not (= x26 x68)) (and (not (= x14 x26)) (and (not (= x26 x72)) (not (= x43 x26)))))) (not (= x14 x43))) (not (= x43 x68))))) (not (= x14 x68))) (and (not (= x129 x147)) (and (not (= x147 x156)) (and (not (= x156 x129)) (and (and (and (and (and (not (= x129 x102)) (and (not (= x102 x156)) (not (= x102 x120)))) (not (= x147 x102))) (not (= x120 x156))) (not (= x120 x129))) (not (= x120 x147))))))))) (and (and (and (not (= x145 x66)) (and (and (and (and (and (not (= x42 x66)) (and (not (= x42 x145)) (not (= x42 x103)))) (not (= x42 x116))) (not (= x103 x145))) (not (= x66 x103))) (not (= x116 x103)))) (not (= x116 x145))) (not (= x116 x66)))) (and (and (and (and (and (and (and (and (and (not (= x72 x95)) (and (not (= x156 x145)) (and (not (= x156 x33)) (and (not (= x156 x72)) (not (= x156 x95)))))) (not (= x72 x33))) (not (= x145 x72))) (not (= x95 x33))) (not (= x95 x145))) (not (= x145 x33))) (and (and (and (not (= x103 x9)) (and (and (and (and (and (and (and (not (= x120 x9)) (not (= x43 x120))) (not (= x120 x108))) (not (= x103 x120))) (not (= x43 x9))) (not (= x43 x108))) (not (= x43 x103))) (not (= x9 x108)))) (not (= x103 x108))) (and (not (= x6 x42)) (and (and (and (and (and (and (and (and (not (= x26 x102)) (not (= x53 x102))) (not (= x6 x102))) (not (= x42 x102))) (not (= x26 x53))) (not (= x26 x6))) (not (= x26 x42))) (not (= x6 x53))) (not (= x53 x42)))))) (and (and (and (and (not (= x14 x66)) (and (not (= x14 x127)) (and (and (not (= x129 x66)) (and (not (= x129 x127)) (and (not (= x115 x129)) (not (= x14 x129))))) (not (= x14 x115))))) (not (= x127 x115))) (not (= x115 x66))) (not (= x66 x127)))) (and (not (= x116 x34)) (and (and (and (and (and (not (= x68 x48)) (and (not (= x147 x116)) (and (not (= x147 x34)) (and (not (= x68 x147)) (not (= x48 x147)))))) (not (= x68 x34))) (not (= x116 x68))) (not (= x48 x34))) (not (= x48 x116))))))))
(assert (and (and (or (or (= (x59 (x59 x50 x50) x50) x50) (or (= x142 (x59 (x59 x142 x50) x50)) (or (= (x59 (x59 x28 x50) x50) x28) (= (x59 (x59 x80 x50) x50) x80)))) (= x47 (x59 (x59 x47 x50) x50))) (and (and (or (or (or (= x142 (x59 (x59 x142 x28) x28)) (or (= x28 (x59 (x59 x28 x28) x28)) (= x80 (x59 (x59 x80 x28) x28)))) (= (x59 (x59 x50 x28) x28) x50)) (= x47 (x59 (x59 x47 x28) x28))) (or (or (or (or (= x80 (x59 (x59 x80 x80) x80)) (= x28 (x59 (x59 x28 x80) x80))) (= (x59 (x59 x142 x80) x80) x142)) (= x50 (x59 (x59 x50 x80) x80))) (= (x59 (x59 x47 x80) x80) x47))) (or (= (x59 (x59 x47 x142) x142) x47) (or (= (x59 (x59 x50 x142) x142) x50) (or (= x142 (x59 (x59 x142 x142) x142)) (or (= (x59 (x59 x28 x142) x142) x28) (= (x59 (x59 x80 x142) x142) x80))))))) (or (or (or (= (x59 (x59 x142 x47) x47) x142) (or (= x28 (x59 (x59 x28 x47) x47)) (= (x59 (x59 x80 x47) x47) x80))) (= x50 (x59 (x59 x50 x47) x47))) (= x47 (x59 (x59 x47 x47) x47)))))
(assert (or (and (not (= x47 (x59 (x59 x47 x47) x47))) (and (not (= (x59 (x59 x50 x47) x50) x47)) (and (and (not (= x47 (x59 (x59 x80 x47) x80))) (not (= (x59 (x59 x28 x47) x28) x47))) (not (= (x59 (x59 x142 x47) x142) x47))))) (or (or (or (and (and (and (and (not (= x28 (x59 (x59 x80 x28) x80))) (not (= x28 (x59 (x59 x28 x28) x28)))) (not (= x28 (x59 (x59 x142 x28) x142)))) (not (= (x59 (x59 x50 x28) x50) x28))) (not (= x28 (x59 (x59 x47 x28) x47)))) (and (and (not (= x80 (x59 (x59 x50 x80) x50))) (and (and (not (= x80 (x59 (x59 x28 x80) x28))) (not (= (x59 (x59 x80 x80) x80) x80))) (not (= x80 (x59 (x59 x142 x80) x142))))) (not (= x80 (x59 (x59 x47 x80) x47))))) (and (and (not (= x142 (x59 (x59 x50 x142) x50))) (and (and (not (= x142 (x59 (x59 x80 x142) x80))) (not (= (x59 (x59 x28 x142) x28) x142))) (not (= (x59 (x59 x142 x142) x142) x142)))) (not (= (x59 (x59 x47 x142) x47) x142)))) (and (and (not (= (x59 (x59 x50 x50) x50) x50)) (and (and (not (= x50 (x59 (x59 x28 x50) x28))) (not (= x50 (x59 (x59 x80 x50) x80)))) (not (= (x59 (x59 x142 x50) x142) x50)))) (not (= (x59 (x59 x47 x50) x47) x50))))))
(assert (let ((x102 (= x28 (x59 x28 x28))) (x116 (= (x59 x47 x47) x47)) (x127 (x59 x47 x80)) (x72 (x59 x80 x142)) (x14 (= (x59 x142 x142) x142)) (x95 (x59 x80 x50)) (x43 (x59 x142 x80)) (x145 (x59 x47 x50)) (x34 (x59 x80 x47)) (x147 (x59 x142 x28)) (x66 (x59 x50 x47)) (x68 (x59 x50 x28)) (x42 (x59 x47 x142)) (x53 (x59 x28 x50)) (x108 (x59 x47 x28)) (x9 (x59 x50 x80)) (x48 (x59 x142 x50)) (x156 (x59 x28 x80)) (x115 (x59 x50 x142)) (x129 (= x80 (x59 x80 x80))) (x6 (= (x59 x50 x50) x50)) (x26 (x59 x28 x142)) (x120 (x59 x80 x28)) (x103 (x59 x142 x47)) (x33 (x59 x28 x47))) (or (or (or (or (or (or (and x14 x14) (or (and (= x43 x142) (= x72 x142)) (and (= x147 x142) (= x142 x26)))) (and (= x142 x48) (= x115 x142))) (and (= x103 x142) (= x142 x42))) (or (or (or (and (= x28 x68) (= x53 x28)) (or (and (= x28 x147) (= x26 x28)) (or (and x102 x102) (and (= x120 x28) (= x28 x156))))) (and (= x108 x28) (= x33 x28))) (or (and (= x127 x80) (= x80 x34)) (or (or (or (and (= x156 x80) (= x80 x120)) (and x129 x129)) (and (= x80 x72) (= x80 x43))) (and (= x9 x80) (= x95 x80)))))) (or (and (= x66 x50) (= x145 x50)) (or (or (and (= x48 x50) (= x115 x50)) (or (and (= x50 x9) (= x95 x50)) (and (= x53 x50) (= x50 x68)))) (and x6 x6)))) (or (or (or (and (= x42 x47) (= x103 x47)) (or (and (= x47 x33) (= x108 x47)) (and (= x47 x34) (= x47 x127)))) (and (= x47 x66) (= x47 x145))) (and x116 x116)))))
(assert (or (and (and (not (= (x59 x50 x47) x50)) (and (not (= (x59 x142 x47) x142)) (and (not (= x28 (x59 x28 x47))) (not (= x80 (x59 x80 x47)))))) (not (= (x59 x47 x47) x47))) (or (and (and (and (and (not (= x28 (x59 x28 x50))) (not (= (x59 x80 x50) x80))) (not (= (x59 x142 x50) x142))) (not (= (x59 x50 x50) x50))) (not (= x47 (x59 x47 x50)))) (or (and (not (= x47 (x59 x47 x142))) (and (and (and (not (= x80 (x59 x80 x142))) (not (= (x59 x28 x142) x28))) (not (= (x59 x142 x142) x142))) (not (= x50 (x59 x50 x142))))) (or (and (not (= (x59 x47 x80) x47)) (and (not (= x50 (x59 x50 x80))) (and (not (= x142 (x59 x142 x80))) (and (not (= (x59 x28 x80) x28)) (not (= (x59 x80 x80) x80)))))) (and (and (not (= x50 (x59 x50 x28))) (and (and (not (= x80 (x59 x80 x28))) (not (= (x59 x28 x28) x28))) (not (= x142 (x59 x142 x28))))) (not (= x47 (x59 x47 x28)))))))))
(assert (and (and (and (not (= x142 (x59 x142 x142))) (and (not (= (x59 x28 x28) x28)) (not (= x80 (x59 x80 x80))))) (not (= (x59 x50 x50) x50))) (not (= x47 (x59 x47 x47)))))
(assert (or (or (and (not (= (x59 x50 (x59 x50 x47)) x47)) (and (and (not (= x142 (x59 x50 (x59 x50 x142)))) (and (not (= x28 (x59 x50 (x59 x50 x28)))) (not (= x80 (x59 x50 (x59 x50 x80)))))) (not (= (x59 x50 (x59 x50 x50)) x50)))) (or (or (and (not (= (x59 x80 (x59 x80 x47)) x47)) (and (not (= x50 (x59 x80 (x59 x80 x50)))) (and (not (= x142 (x59 x80 (x59 x80 x142)))) (and (not (= x28 (x59 x80 (x59 x80 x28)))) (not (= x80 (x59 x80 (x59 x80 x80)))))))) (and (not (= (x59 x28 (x59 x28 x47)) x47)) (and (not (= x50 (x59 x28 (x59 x28 x50)))) (and (and (not (= x28 (x59 x28 (x59 x28 x28)))) (not (= (x59 x28 (x59 x28 x80)) x80))) (not (= (x59 x28 (x59 x28 x142)) x142)))))) (and (not (= x47 (x59 x142 (x59 x142 x47)))) (and (not (= (x59 x142 (x59 x142 x50)) x50)) (and (not (= x142 (x59 x142 (x59 x142 x142)))) (and (not (= x80 (x59 x142 (x59 x142 x80)))) (not (= (x59 x142 (x59 x142 x28)) x28)))))))) (and (not (= x47 (x59 x47 (x59 x47 x47)))) (and (and (and (not (= (x59 x47 (x59 x47 x80)) x80)) (not (= (x59 x47 (x59 x47 x28)) x28))) (not (= (x59 x47 (x59 x47 x142)) x142))) (not (= (x59 x47 (x59 x47 x50)) x50))))))
(assert (or (= x47 (x59 (x59 x47 x47) x47)) (or (= (x59 (x59 x50 x50) x50) x50) (or (= x142 (x59 (x59 x142 x142) x142)) (or (= x80 (x59 (x59 x80 x80) x80)) (= x28 (x59 (x59 x28 x28) x28)))))))
(assert (and (and (not (= x47 x142)) (and (not (= x142 x50)) (and (not (= x47 x80)) (and (not (= x80 x50)) (and (and (and (not (= x28 x50)) (and (not (= x28 x80)) (not (= x142 x28)))) (not (= x47 x28))) (not (= x80 x142))))))) (not (= x50 x47))))
(assert (let ((x129 (x59 x50 x50)) (x147 (x59 x47 x47)) (x156 (x59 x142 x142)) (x120 (x59 x80 x80)) (x102 (x59 x28 x28))) (or (and (not (= x47 x147)) (and (not (= x129 x47)) (and (and (not (= x102 x47)) (not (= x47 x120))) (not (= x47 x156))))) (or (or (and (not (= x142 x147)) (and (and (and (not (= x142 x102)) (not (= x120 x142))) (not (= x142 x156))) (not (= x142 x129)))) (or (and (not (= x147 x80)) (and (and (not (= x156 x80)) (and (not (= x120 x80)) (not (= x80 x102)))) (not (= x129 x80)))) (and (and (and (not (= x28 x156)) (and (not (= x28 x102)) (not (= x120 x28)))) (not (= x129 x28))) (not (= x28 x147))))) (and (not (= x50 x147)) (and (not (= x129 x50)) (and (not (= x50 x156)) (and (not (= x102 x50)) (not (= x50 x120))))))))))
(assert (let ((x129 (x59 x50 x50)) (x147 (x59 x47 x47)) (x102 (x59 x28 x28)) (x120 (x59 x80 x80)) (x156 (x59 x142 x142))) (or (= (x59 x147 x147) x47) (or (or (or (= (x59 x120 x120) x80) (= x28 (x59 x102 x102))) (= (x59 x156 x156) x142)) (= (x59 x129 x129) x50)))))
(assert (let ((x120 (x59 x80 x28)) (x34 (x59 x47 x50)) (x26 (x59 x28 x80)) (x14 (x59 x50 x80)) (x6 (x59 x28 x50)) (x95 (x59 x142 x142)) (x9 (x59 x80 x142)) (x108 (x59 x80 x50)) (x127 (x59 x50 x50)) (x48 (x59 x47 x142)) (x129 (x59 x50 x28)) (x72 (x59 x142 x80)) (x53 (x59 x28 x142)) (x103 (x59 x80 x47)) (x43 (x59 x80 x80)) (x68 (x59 x47 x80)) (x42 (x59 x28 x47)) (x147 (x59 x47 x28)) (x33 (x59 x142 x50)) (x145 (x59 x142 x47)) (x156 (x59 x142 x28)) (x102 (x59 x28 x28)) (x66 (x59 x50 x47)) (x116 (x59 x47 x47)) (x115 (x59 x50 x142))) (and (and (and (or (or (= (x59 x115 x115) x50) (or (= (x59 x95 x95) x142) (or (= x28 (x59 x53 x53)) (= x80 (x59 x9 x9))))) (= (x59 x48 x48) x47)) (and (or (= (x59 x68 x68) x47) (or (= (x59 x14 x14) x50) (or (= (x59 x72 x72) x142) (or (= (x59 x26 x26) x28) (= x80 (x59 x43 x43)))))) (or (or (= (x59 x129 x129) x50) (or (= (x59 x156 x156) x142) (or (= x28 (x59 x102 x102)) (= (x59 x120 x120) x80)))) (= (x59 x147 x147) x47)))) (or (= (x59 x34 x34) x47) (or (or (or (= x80 (x59 x108 x108)) (= x28 (x59 x6 x6))) (= (x59 x33 x33) x142)) (= x50 (x59 x127 x127))))) (or (= x47 (x59 x116 x116)) (or (= (x59 x66 x66) x50) (or (or (= x80 (x59 x103 x103)) (= (x59 x42 x42) x28)) (= (x59 x145 x145) x142)))))))
(assert (not (and (and (and (= x47 (x59 x47 x142)) (and (and (and (and (= x28 (x59 x50 x50)) (and (and (and (and (and (and (and (= x80 (x59 x142 x80)) (and (= (x59 x142 x28) x50) (and (and (= (x59 x80 x50) x80) (and (and (= x142 (x59 x80 x80)) (and (and (= x80 (x59 x28 x47)) (and (= x50 (x59 x28 x50)) (and (= (x59 x28 x142) x142) (and (= x47 (x59 x28 x28)) (= x28 (x59 x28 x80)))))) (= (x59 x80 x28) x28))) (= (x59 x80 x142) x50))) (= x47 (x59 x80 x47))))) (= (x59 x142 x142) x28)) (= x47 (x59 x142 x50))) (= x142 (x59 x142 x47))) (= x142 (x59 x50 x28))) (= x47 (x59 x50 x80))) (= (x59 x50 x142) x80))) (= (x59 x50 x47) x50)) (= (x59 x47 x28) x80)) (= (x59 x47 x80) x50))) (= (x59 x47 x50) x142)) (= (x59 x47 x47) x28))))
(assert (and (and (= x50 (x59 x80 x142)) (and (= x142 (x59 x80 x80)) (= x28 (x59 x47 x47)))) (= (x59 x50 x80) x47)))
(assert (or (or (or (and (not (= (x59 (x59 x142 x47) x142) x47)) (and (and (not (= x142 (x59 (x59 x142 x142) x142))) (and (not (= x80 (x59 (x59 x142 x80) x142))) (not (= (x59 (x59 x142 x28) x142) x28)))) (not (= x50 (x59 (x59 x142 x50) x142))))) (or (and (not (= (x59 (x59 x28 x47) x28) x47)) (and (and (and (not (= x80 (x59 (x59 x28 x80) x28))) (not (= x28 (x59 (x59 x28 x28) x28)))) (not (= x142 (x59 (x59 x28 x142) x28)))) (not (= x50 (x59 (x59 x28 x50) x28))))) (and (not (= (x59 (x59 x80 x47) x80) x47)) (and (and (and (not (= (x59 (x59 x80 x80) x80) x80)) (not (= x28 (x59 (x59 x80 x28) x80)))) (not (= x142 (x59 (x59 x80 x142) x80)))) (not (= x50 (x59 (x59 x80 x50) x80))))))) (and (not (= (x59 (x59 x50 x47) x50) x47)) (and (not (= x50 (x59 (x59 x50 x50) x50))) (and (and (not (= (x59 (x59 x50 x80) x50) x80)) (not (= x28 (x59 (x59 x50 x28) x50)))) (not (= x142 (x59 (x59 x50 x142) x50))))))) (and (and (and (and (not (= (x59 (x59 x47 x28) x47) x28)) (not (= (x59 (x59 x47 x80) x47) x80))) (not (= (x59 (x59 x47 x142) x47) x142))) (not (= (x59 (x59 x47 x50) x47) x50))) (not (= x47 (x59 (x59 x47 x47) x47))))))
(assert (and (not (= x47 (x59 x47 (x59 x47 x47)))) (and (and (and (not (= (x59 x80 (x59 x80 x80)) x80)) (not (= (x59 x28 (x59 x28 x28)) x28))) (not (= x142 (x59 x142 (x59 x142 x142))))) (not (= (x59 x50 (x59 x50 x50)) x50)))))
(assert (let ((x108 (not (= x28 (x59 x47 x28)))) (x102 (not (= (x59 x28 x28) x28))) (x145 (not (= x50 (x59 x47 x50)))) (x103 (not (= (x59 x142 x47) x47))) (x95 (not (= x50 (x59 x80 x50)))) (x129 (not (= x80 (x59 x80 x80)))) (x53 (not (= x50 (x59 x28 x50)))) (x68 (not (= (x59 x50 x28) x28))) (x156 (not (= x80 (x59 x28 x80)))) (x116 (not (= x47 (x59 x47 x47)))) (x147 (not (= (x59 x142 x28) x28))) (x115 (not (= x142 (x59 x50 x142)))) (x43 (not (= x80 (x59 x142 x80)))) (x66 (not (= x47 (x59 x50 x47)))) (x120 (not (= (x59 x80 x28) x28))) (x34 (not (= x47 (x59 x80 x47)))) (x42 (not (= x142 (x59 x47 x142)))) (x14 (not (= (x59 x142 x142) x142))) (x6 (not (= x50 (x59 x50 x50)))) (x127 (not (= (x59 x47 x80) x80))) (x26 (not (= (x59 x28 x142) x142))) (x72 (not (= x142 (x59 x80 x142)))) (x48 (not (= (x59 x142 x50) x50))) (x9 (not (= x80 (x59 x50 x80)))) (x33 (not (= (x59 x28 x47) x47)))) (and (and (and (and (and (and (or x95 x9) (or x68 x53)) (or x48 x115)) (or x6 x6)) (or x145 x66)) (and (and (or x103 x42) (and (or x48 x115) (and (or x14 x14) (and (or x72 x43) (or x26 x147))))) (and (and (or x34 x127) (and (or x9 x95) (and (and (or x120 x156) (or x129 x129)) (or x43 x72)))) (and (and (or x53 x68) (and (or x147 x26) (and (or x102 x102) (or x120 x156)))) (or x108 x33))))) (and (and (and (and (or x34 x127) (or x108 x33)) (or x42 x103)) (or x145 x66)) (or x116 x116)))))
(check-sat)
(exit)
